SYSTEM = Graphene
ENCUT = 520
EDIFF = 1E-6
ISMEAR = 0
SIGMA = 0.05
IBRION = 2
NSW = 100
ISIF = 3
PREC = Accurate